nApps = 210
nRes = 9
nActs = 448
nNetworks = 6

assignmentToResources = [1,1,3,3,2,3,3,2,1,3,2,1,3,3,2,2,2,1,2,1,1,2,3,3,3,3,3,3,1,1,1,1,2,3,2,3,2,1,1,3,1,1,1,3,2,3,3,2,1,3,1,3,2,3,2,2,3,2,2,3,1,3,2,2,2,2,3,3,2,3,3,3,2,2,1,3,1,2,3,1,3,3,3,1,3,1,3,1,2,1,1,1,2,1,2,1,2,1,2,3,4,4,4,4,4,4,4,4,4,4,6,6,6,6,6,5,5,5,5,5,6,6,6,6,6,5,6,5,5,4,4,6,6,5,5,5,5,5,5,5,4,4,4,4,4,5,5,6,6,6,6,6,6,6,6,4,4,4,4,4,4,4,4,5,5,5,5,4,4,6,4,4,4,4,4,4,4,6,6,6,6,6,6,4,4,4,6,6,4,4,5,5,6,6,5,5,5,5,6,6,5,5,5,5,5,5,6,6,6,6,6,6,6,6,6,6,5,5,4,4,4,4,4,6,6,6,4,4,4,6,4,4,4,4,4,4,4,4,4,5,4,4,6,6,4,8,5,9,6,8,5,9,4,9,5,7,6,8,4,8,6,8,5,7,4,8,6,7,6,8,5,7,6,8,5,7,4,8,6,7,4,8,5,9,6,8,5,9,4,8,4,8,6,7,5,7,4,9,4,8,5,9,6,8,8,9,8,8,9,8,9,8,8,8,8,8,8,7,8,9,7,9,9,9,7,8,7,8,8,9,8,7,7,9,8,7,8,9,9,7,9,9,9,7,9,9,9,8,8,7,9,7,8,7,8,7,8,8,7,8,8,8,9,9,8,8,8,7,9,9,7,9,8,7,8,8,9,8,9,9,8,7,8,8,8,7,7,9,8,8,7,8,9,9,7,9,7,8,7,7,7,9,8,8,9,7,9,9,9,9,7,8,8,8,7,8,7,7,8,7,9,7,9,9,8,8,9,7,8,8,8,8,8,7,8,9,9,8,9,9,9,9,8,9,8,9,8,7];

processingTimes = [136,160,88,160,128,120,120,128,168,128,48,80,128,160,96,104,104,136,80,144,64,136,128,72,104,120,112,136,48,48,128,112,104,152,64,136,120,136,120,144,128,104,168,152,120,128,112,104,120,128,160,88,112,80,80,96,120,152,88,128,80,160,80,104,152,72,112,104,120,104,112,48,152,136,144,128,64,80,64,96,120,88,112,112,72,136,128,128,104,144,64,64,112,48,104,64,120,136,136,144,3,500,4,4,500,4,4,4,4,4,4,4,3,4,4,4,8,500,4,4,500,500,13,4,3,5,4,4,8,4,4,500,4,3,8,500,500,500,3,3,4,4,4,4,7,5,5,8,3,4,3,3,3,4,3,3,500,3,8,4,4,3,200,3,3,500,8,3,4,13,3,4,3,4,3,3,500,5,4,3,500,500,3,3,3,3,500,4,3,3,3,5,3,500,3,500,500,3,500,4,500,3,4,8,4,4,3,500,500,5,5,9,100,4,100,4,500,5,4,4,4,3,4,3,8,3,7,3,500,4,8,8,8,500,3,4,4,3,3,5,8,8,500,3,3,3,4,4,13,13,3,3,13,13,13,13,4,4,3,3,4,4,3,3,3,3,3,3,500,500,500,500,7,7,4,4,8,8,10,10,4,4,4,4,3,3,4,4,4,4,8,8,3,3,4,4,5,5,4,4,3,3,3,3,3,500,4,4,500,4,4,4,4,4,4,4,3,4,4,4,8,500,4,4,500,500,13,4,3,5,4,4,8,4,4,500,4,3,8,500,500,500,3,3,4,4,4,4,7,5,5,8,3,4,3,3,3,4,3,3,500,3,8,4,4,3,200,3,3,500,8,3,4,13,3,4,3,4,3,3,500,5,4,3,500,500,3,3,3,3,500,4,3,3,3,5,3,500,3,500,500,3,500,4,500,3,4,8,4,4,3,500,500,5,5,9,100,4,100,4,500,5,4,4,4,3,4,3,8,3,7,3,500,4,8,8,8,500,3,4,4,3,3,5,8,8,500,3];

periods = [10000,100000,10000,20000,20000,10000,100000,10000,100000,20000,20000,20000,10000,20000,100000,100000,10000,10000,20000,10000,1000,1000,20000,2000,20000,100000,10000,10000,100000,20000,10000,2000,10000,100000,20000,2000,20000,50000,50000,100000,100000,20000,10000,100000,100000,100000,10000,10000,2000,100000,20000,100000,100000,20000,100000,20000,20000,100000,20000,20000,10000,20000,100000,10000,10000,20000,10000,100000,10000,10000,10000,1000,100000,2000,20000,100000,20000,10000,20000,10000,20000,100000,20000,20000,20000,20000,10000,20000,20000,10000,100000,20000,10000,20000,1000,10000,20000,10000,100000,20000,10000,10000,10000,10000,10000,10000,100000,100000,100000,100000,10000,10000,10000,20000,20000,20000,20000,20000,20000,20000,10000,10000,10000,100000,100000,10000,20000,20000,20000,20000,20000,10000,10000,100000,100000,100000,20000,20000,20000,20000,10000,10000,10000,10000,1000,1000,1000,20000,20000,2000,20000,100000,100000,100000,10000,100000,20000,20000,10000,10000,10000,2000,2000,10000,10000,20000,20000,50000,50000,100000,100000,20000,20000,20000,10000,10000,10000,100000,100000,100000,100000,10000,10000,2000,2000,2000,100000,100000,20000,20000,100000,100000,20000,20000,100000,100000,100000,20000,20000,20000,100000,10000,10000,10000,20000,20000,10000,10000,10000,10000,10000,1000,1000,1000,1000,1000,100000,2000,20000,20000,20000,20000,10000,20000,20000,20000,20000,20000,20000,10000,20000,20000,20000,10000,10000,10000,10000,10000,10000,10000,10000,10000,20000,20000,100000,100000,100000,100000,100000,100000,100000,100000,100000,100000,100000,100000,100000,100000,100000,100000,10000,10000,10000,10000,10000,10000,10000,10000,10000,10000,10000,10000,10000,10000,10000,10000,10000,10000,10000,10000,10000,10000,10000,10000,20000,20000,20000,20000,20000,20000,20000,20000,20000,20000,20000,20000,20000,20000,10000,10000,10000,10000,10000,10000,10000,10000,10000,10000,10000,10000,100000,100000,100000,100000,10000,10000,10000,20000,20000,20000,20000,20000,20000,20000,10000,10000,10000,100000,100000,10000,20000,20000,20000,20000,20000,10000,10000,100000,100000,100000,20000,20000,20000,20000,10000,10000,10000,10000,1000,1000,1000,20000,20000,2000,20000,100000,100000,100000,10000,100000,20000,20000,10000,10000,10000,2000,2000,10000,10000,20000,20000,50000,50000,100000,100000,20000,20000,20000,10000,10000,10000,100000,100000,100000,100000,10000,10000,2000,2000,2000,100000,100000,20000,20000,100000,100000,20000,20000,100000,100000,100000,20000,20000,20000,100000,10000,10000,10000,20000,20000,10000,10000,10000,10000,10000,1000,1000,1000,1000,1000,100000,2000,20000,20000,20000,20000,10000,20000,20000,20000,20000,20000,20000,10000,20000,20000,20000,10000,10000,10000,10000,10000,10000,10000,10000,10000,20000,20000];

assignmentToClusters = [1,2,3,4,5,6,2,7,2,8,9,10,11,12,2,13,11,3,14,7,15,16,17,18,19,20,21,22,2,23,11,24,22,25,26,27,28,29,30,2,31,26,32,33,2,34,35,36,37,38,39,40,41,42,43,44,45,46,47,26,22,28,2,48,11,26,7,49,48,22,48,50,51,52,53,20,28,3,54,55,56,2,57,58,59,60,61,23,62,48,2,63,3,64,65,66,39,6,2,39,67,68,69,70,71,72,73,74,75,76,77,78,79,80,81,82,83,84,85,86,87,88,89,90,91,92,93,94,95,96,97,98,99,100,101,102,103,104,105,106,107,108,109,110,111,112,113,114,115,116,117,118,119,120,121,122,123,124,125,126,127,128,129,130,131,132,133,134,135,136,137,138,139,140,141,142,143,144,145,146,147,148,149,150,151,152,153,154,155,156,157,158,159,160,161,162,163,164,165,166,167,168,169,170,171,172,173,174,175,176,177,178,179,180,181,182,183,184,185,186,187,188,189,190,191,192,193,194,195,196,197,198,199,200,201,202,203,204,205,206,207,208,209,210,2,2,2,2,2,2,2,2,2,2,2,2,2,2,2,2,3,3,3,3,3,3,6,6,7,7,7,7,11,11,11,11,11,11,22,22,22,22,22,22,26,26,26,26,26,26,28,28,28,28,39,39,39,39,48,48,48,48,48,48,67,68,69,70,71,72,73,74,75,76,77,78,79,80,81,82,83,84,85,86,87,88,89,90,91,92,93,94,95,96,97,98,99,100,101,102,103,104,105,106,107,108,109,110,111,112,113,114,115,116,117,118,119,120,121,122,123,124,125,126,127,128,129,130,131,132,133,134,135,136,137,138,139,140,141,142,143,144,145,146,147,148,149,150,151,152,153,154,155,156,157,158,159,160,161,162,163,164,165,166,167,168,169,170,171,172,173,174,175,176,177,178,179,180,181,182,183,184,185,186,187,188,189,190,191,192,193,194,195,196,197,198,199,200,201,202,203,204,205,206,207,208,209,210];

precedenceAdjList = [[],[],[],[],[],[],[251,253],[269],[],[],[],[],[],[],[245],[],[273],[263],[],[271],[],[],[],[],[],[],[],[],[8,255],[87],[275],[],[281],[],[285],[],[291],[],[],[247],[],[],[],[],[259],[],[],[],[],[],[295],[],[],[],[],[],[],[],[],[287],[279],[],[257],[299],[277],[289],[],[],[303],[283],[301],[],[],[],[],[25],[293],[261],[],[],[],[],[],[],[],[],[],[],[],[],[28],[],[265],[],[],[],[],[267],[249],[297],[],[],[],[],[],[],[],[],[],[],[],[],[],[],[],[],[],[],[],[],[],[],[],[],[],[],[],[],[],[],[],[],[],[],[],[],[],[],[],[],[],[],[],[],[],[],[],[],[],[],[],[],[],[],[],[],[],[],[],[],[],[],[],[],[],[],[],[],[],[],[],[],[],[],[],[],[],[],[],[],[],[],[],[],[],[],[],[],[],[],[],[],[],[],[],[],[],[],[],[],[],[],[],[],[],[],[],[],[],[],[],[],[],[],[],[],[],[],[],[],[],[],[],[],[],[],[],[],[],[],[],[],[],[],[],[],[],[],[],[],[],[],[],[],[1],[244],[14],[246],[39],[248],[98],[250],[90],[252],[62],[254],[81],[256],[28],[258],[2],[260],[77],[262],[17],[264],[5],[266],[66],[268],[7],[270],[12],[272],[16],[274],[30],[276],[27],[278],[60],[280],[32],[282],[59],[284],[65],[286],[41],[288],[76],[290],[61],[292],[96],[294],[50],[296],[89],[298],[63],[300],[70],[302],[100],[101],[102],[103],[104],[105],[106],[107],[108],[109],[110],[111],[112],[113],[114],[115],[116],[117],[118],[119],[120],[121],[122],[123],[124],[125],[126],[127],[128],[129],[130],[131],[132],[133],[134],[135],[136],[137],[138],[139],[140],[141],[142],[143],[144],[145],[146],[147],[148],[149],[150],[151],[152],[153],[154],[155],[156],[157],[158],[159],[160],[161],[162],[163],[164],[165],[166],[167],[168],[169],[170],[171],[172],[173],[174],[175],[176],[177],[178],[179],[180],[181],[182],[183],[184],[185],[186],[187],[188],[189],[190],[191],[192],[193],[194],[195],[196],[197],[198],[199],[200],[201],[202],[203],[204],[205],[206],[207],[208],[209],[210],[211],[212],[213],[214],[215],[216],[217],[218],[219],[220],[221],[222],[223],[224],[225],[226],[227],[228],[229],[230],[231],[232],[233],[234],[235],[236],[237],[238],[239],[240],[241],[242],[243]];